\Problem name: 

Minimize
OBJROW: 0.03525 var(0) -0.00146 var(1) + 0.00995 var(2) + 0.00381 var(3) + 0.01226 var(4) + 0.00360 var(5) + 0.00878 var(6) + 0.00393 var(7) + 0.00129 var(8) + 0.01037 var(9)
 + 0.00255 var(10) + 0.00195 var(11) -0.00319 var(12) -0.00921 var(13) + 0.00839 var(14) + 0.00382 var(15) + 0.00255 var(16) -0.00985 var(17) + 0.00709 var(18) + 0.00302 var(19)
 + 0.01539 var(20) + 0.00056 var(21) -0.00474 var(22) + 0.01160 var(23) + 0.00829 var(24) + 0.01992 var(25) + 0.00922 var(26) + 0.00367 var(27) + 0.00428 var(28) -0.00104 var(29)
 -0.00202 var(30) + 0.00970 var(31) + 0.01901 var(32) + 0.01812 var(33) + 0.00593 var(34) + 0.00696 var(35) + 0.00156 var(36) + 0.00207 var(37) -0.00001 var(38) + 0.00673 var(39)
 + 0.04554 var(40) + 0.00713 var(41) + 0.02153 var(42) + 0.00447 var(43) + 0.00983 var(44) + 0.00736 var(45) -0.00139 var(46) + 0.00649 var(47) -0.00197 var(48) + 0.00276 var(49)
 + 0.00797 var(50) + 0.00068 var(51) + 0.02740 var(52) -0.00569 var(53) + 0.00020 var(54) -0.00025 var(55) + 0.00522 var(56) + 0.00224 var(57) + 0.00193 var(58) + 0.00041 var(59)
 + 0.01079 var(60) + 0.00628 var(61) + 0.01074 var(62) + 0.00692 var(63) + 0.02015 var(64) + 0.00888 var(65) + 0.00366 var(66) -0.00166 var(67) + 0.00077 var(68) + 0.00456 var(69)
 -0.00793 var(70) + 0.00902 var(71) -0.00359 var(72) + 0.01721 var(73) + 0.00625 var(74) + 0.00746 var(75) + 0.00803 var(76) + 0.00334 var(77) + 0.00356 var(78) + 0.00485 var(79)
 + 0.01529 var(80) + 0.00962 var(81) + 0.00222 var(82) -0.00737 var(83) + 0.00766 var(84) + 0.00435 var(85) + 0.00209 var(86) + 0.00724 var(87) + 0.00081 var(88) + 0.00154 var(89)
 + 0.00957 var(90) + 0.00748 var(91) + 0.02446 var(92) + 0.00172 var(93) + 0.01150 var(94) + 0.00438 var(95) + 0.00511 var(96) + 0.00127 var(97) -0.00257 var(98) + 0.00883 var(99)
Subject To
constr(0):  var(0) + var(10) + var(20) + var(30) + var(40) + var(50) + var(60) + var(70) + var(80) + var(90)
 = 1
constr(1):  var(1) + var(11) + var(21) + var(31) + var(41) + var(51) + var(61) + var(71) + var(81) + var(91)
 = 1
constr(2):  var(2) + var(12) + var(22) + var(32) + var(42) + var(52) + var(62) + var(72) + var(82) + var(92)
 = 1
constr(3):  var(3) + var(13) + var(23) + var(33) + var(43) + var(53) + var(63) + var(73) + var(83) + var(93)
 = 1
constr(4):  var(4) + var(14) + var(24) + var(34) + var(44) + var(54) + var(64) + var(74) + var(84) + var(94)
 = 1
constr(5):  var(5) + var(15) + var(25) + var(35) + var(45) + var(55) + var(65) + var(75) + var(85) + var(95)
 = 1
constr(6):  var(6) + var(16) + var(26) + var(36) + var(46) + var(56) + var(66) + var(76) + var(86) + var(96)
 = 1
constr(7):  var(7) + var(17) + var(27) + var(37) + var(47) + var(57) + var(67) + var(77) + var(87) + var(97)
 = 1
constr(8):  var(8) + var(18) + var(28) + var(38) + var(48) + var(58) + var(68) + var(78) + var(88) + var(98)
 = 1
constr(9):  var(9) + var(19) + var(29) + var(39) + var(49) + var(59) + var(69) + var(79) + var(89) + var(99)
 = 1
Bounds
 0 <= var(0) <= 1
 0 <= var(1) <= 1
 0 <= var(2) <= 1
 0 <= var(3) <= 1
 0 <= var(4) <= 1
 0 <= var(5) <= 1
 0 <= var(6) <= 1
 0 <= var(7) <= 1
 0 <= var(8) <= 1
 0 <= var(9) <= 1
 0 <= var(10) <= 1
 0 <= var(11) <= 1
 0 <= var(12) <= 1
 0 <= var(13) <= 1
 0 <= var(14) <= 1
 0 <= var(15) <= 1
 0 <= var(16) <= 1
 0 <= var(17) <= 1
 0 <= var(18) <= 1
 0 <= var(19) <= 1
 0 <= var(20) <= 1
 0 <= var(21) <= 1
 0 <= var(22) <= 1
 0 <= var(23) <= 1
 0 <= var(24) <= 1
 0 <= var(25) <= 1
 0 <= var(26) <= 1
 0 <= var(27) <= 1
 0 <= var(28) <= 1
 0 <= var(29) <= 1
 0 <= var(30) <= 1
 0 <= var(31) <= 1
 0 <= var(32) <= 1
 0 <= var(33) <= 1
 0 <= var(34) <= 1
 0 <= var(35) <= 1
 0 <= var(36) <= 1
 0 <= var(37) <= 1
 0 <= var(38) <= 1
 0 <= var(39) <= 1
 0 <= var(40) <= 1
 0 <= var(41) <= 1
 0 <= var(42) <= 1
 0 <= var(43) <= 1
 0 <= var(44) <= 1
 0 <= var(45) <= 1
 0 <= var(46) <= 1
 0 <= var(47) <= 1
 0 <= var(48) <= 1
 0 <= var(49) <= 1
 0 <= var(50) <= 1
 0 <= var(51) <= 1
 0 <= var(52) <= 1
 0 <= var(53) <= 1
 0 <= var(54) <= 1
 0 <= var(55) <= 1
 0 <= var(56) <= 1
 0 <= var(57) <= 1
 0 <= var(58) <= 1
 0 <= var(59) <= 1
 0 <= var(60) <= 1
 0 <= var(61) <= 1
 0 <= var(62) <= 1
 0 <= var(63) <= 1
 0 <= var(64) <= 1
 0 <= var(65) <= 1
 0 <= var(66) <= 1
 0 <= var(67) <= 1
 0 <= var(68) <= 1
 0 <= var(69) <= 1
 0 <= var(70) <= 1
 0 <= var(71) <= 1
 0 <= var(72) <= 1
 0 <= var(73) <= 1
 0 <= var(74) <= 1
 0 <= var(75) <= 1
 0 <= var(76) <= 1
 0 <= var(77) <= 1
 0 <= var(78) <= 1
 0 <= var(79) <= 1
 0 <= var(80) <= 1
 0 <= var(81) <= 1
 0 <= var(82) <= 1
 0 <= var(83) <= 1
 0 <= var(84) <= 1
 0 <= var(85) <= 1
 0 <= var(86) <= 1
 0 <= var(87) <= 1
 0 <= var(88) <= 1
 0 <= var(89) <= 1
 0 <= var(90) <= 1
 0 <= var(91) <= 1
 0 <= var(92) <= 1
 0 <= var(93) <= 1
 0 <= var(94) <= 1
 0 <= var(95) <= 1
 0 <= var(96) <= 1
 0 <= var(97) <= 1
 0 <= var(98) <= 1
 0 <= var(99) <= 1
Integers
var(0) var(1) var(2) var(3) var(4) var(5) var(6) var(7) var(8) var(9) 
var(10) var(11) var(12) var(13) var(14) var(15) var(16) var(17) var(18) var(19) 
var(20) var(21) var(22) var(23) var(24) var(25) var(26) var(27) var(28) var(29) 
var(30) var(31) var(32) var(33) var(34) var(35) var(36) var(37) var(38) var(39) 
var(40) var(41) var(42) var(43) var(44) var(45) var(46) var(47) var(48) var(49) 
var(50) var(51) var(52) var(53) var(54) var(55) var(56) var(57) var(58) var(59) 
var(60) var(61) var(62) var(63) var(64) var(65) var(66) var(67) var(68) var(69) 
var(70) var(71) var(72) var(73) var(74) var(75) var(76) var(77) var(78) var(79) 
var(80) var(81) var(82) var(83) var(84) var(85) var(86) var(87) var(88) var(89) 
var(90) var(91) var(92) var(93) var(94) var(95) var(96) var(97) var(98) var(99) 
End
